; MLOAD SWAP1 POP EQ ISZERO ISZERO => SWAP1 POP MLOAD EQ
(set-option :produce-proofs true)
; 
(set-info :status unknown)
(declare-fun storage_t ((_ BitVec 256) (_ BitVec 256) (_ BitVec 256) (_ BitVec 256) Int (_ BitVec 256)) (_ BitVec 256))
(declare-fun storage_s ((_ BitVec 256) (_ BitVec 256) (_ BitVec 256) (_ BitVec 256) Int (_ BitVec 256)) (_ BitVec 256))
(declare-fun exc_halt_t (Int) Bool)
(declare-fun exc_halt_s (Int) Bool)
(declare-fun sc_t (Int) (_ BitVec 6))
(declare-fun stack_t ((_ BitVec 256) (_ BitVec 256) (_ BitVec 256) (_ BitVec 256) Int (_ BitVec 6)) (_ BitVec 256))
(declare-fun stack_s ((_ BitVec 256) (_ BitVec 256) (_ BitVec 256) (_ BitVec 256) Int (_ BitVec 6)) (_ BitVec 256))
(declare-fun sc_s (Int) (_ BitVec 6))
(declare-fun used_gas_t ((_ BitVec 256) (_ BitVec 256) (_ BitVec 256) (_ BitVec 256) Int) Int)
(declare-fun used_gas_s ((_ BitVec 256) (_ BitVec 256) (_ BitVec 256) (_ BitVec 256) Int) Int)
(declare-fun f_MLOAD ((_ BitVec 256) (_ BitVec 256) (_ BitVec 256) (_ BitVec 256) (_ BitVec 256)) (_ BitVec 256))
(assert
 (exists ((x_0 (_ BitVec 256)) (x_1 (_ BitVec 256)) (x_2 (_ BitVec 256)) (x_MLOAD_0 (_ BitVec 256)) )(let (($x6554 (forall ((w (_ BitVec 256)) )(let ((?x9325 (storage_t x_0 x_1 x_2 x_MLOAD_0 4 w)))
 (let ((?x9468 (storage_s x_0 x_1 x_2 x_MLOAD_0 6 w)))
 (= ?x9468 ?x9325))))
 ))
 (let (($x7854 (exc_halt_t 4)))
 (let (($x772 (exc_halt_s 6)))
 (let (($x4404 (= $x772 $x7854)))
 (let (($x9579 (forall ((n (_ BitVec 6)) )(let ((?x4818 (sc_t 4)))
 (let (($x11294 (bvsle ?x4818 n)))
 (let ((?x11094 (stack_t x_0 x_1 x_2 x_MLOAD_0 4 n)))
 (let ((?x995 (stack_s x_0 x_1 x_2 x_MLOAD_0 6 n)))
 (let (($x10500 (= ?x995 ?x11094)))
 (or $x10500 $x11294)))))))
 ))
 (let ((?x4818 (sc_t 4)))
 (let ((?x926 (sc_s 6)))
 (let (($x7899 (= ?x926 ?x4818)))
 (let ((?x2384 (used_gas_t x_0 x_1 x_2 x_MLOAD_0 0)))
 (let ((?x8881 (used_gas_s x_0 x_1 x_2 x_MLOAD_0 0)))
 (let (($x1640 (= ?x8881 ?x2384)))
 (let (($x6677 (forall ((w (_ BitVec 256)) )(let ((?x11469 (storage_t x_0 x_1 x_2 x_MLOAD_0 0 w)))
 (let ((?x10204 (storage_s x_0 x_1 x_2 x_MLOAD_0 0 w)))
 (= ?x10204 ?x11469))))
 ))
 (let (($x56 (exc_halt_t 0)))
 (let (($x57 (exc_halt_s 0)))
 (let (($x58 (= $x57 $x56)))
 (let (($x7118 (forall ((n (_ BitVec 6)) )(let ((?x3228 (stack_t x_0 x_1 x_2 x_MLOAD_0 0 n)))
 (let ((?x661 (stack_s x_0 x_1 x_2 x_MLOAD_0 0 n)))
 (let (($x9726 (= ?x661 ?x3228)))
 (let ((?x63 (sc_t 0)))
 (let (($x2617 (bvsle ?x63 n)))
 (or $x2617 $x9726)))))))
 ))
 (let ((?x63 (sc_t 0)))
 (let ((?x72 (sc_s 0)))
 (let (($x73 (= ?x72 ?x63)))
 (let (($x11453 (= $x7854 (or (exc_halt_t 3) (not (bvsle (_ bv0 6) (bvadd (_ bv62 6) (sc_t 3))))))))
 (let (($x327 (forall ((w (_ BitVec 256)) )(let ((?x4165 (storage_t x_0 x_1 x_2 x_MLOAD_0 3 w)))
 (let ((?x9325 (storage_t x_0 x_1 x_2 x_MLOAD_0 4 w)))
 (= ?x9325 ?x4165))))
 ))
 (let (($x4555 (forall ((n (_ BitVec 6)) )(let ((?x9916 (stack_t x_0 x_1 x_2 x_MLOAD_0 3 n)))
 (let ((?x11094 (stack_t x_0 x_1 x_2 x_MLOAD_0 4 n)))
 (or (bvsle (bvadd (_ bv62 6) (sc_t 3)) n) (= ?x11094 ?x9916)))))
 ))
 (let (($x6418 (= (used_gas_t x_0 x_1 x_2 x_MLOAD_0 4) (+ 3 (used_gas_t x_0 x_1 x_2 x_MLOAD_0 3)))))
 (let ((?x6438 (sc_t 3)))
 (let ((?x11118 (bvadd (_ bv63 6) ?x6438)))
 (let ((?x1294 (stack_t x_0 x_1 x_2 x_MLOAD_0 3 ?x11118)))
 (let ((?x5874 (ite (= ?x1294 (stack_t x_0 x_1 x_2 x_MLOAD_0 3 (bvadd (_ bv62 6) ?x6438))) (_ bv1 256) (_ bv0 256))))
 (let (($x6783 (exc_halt_t 3)))
 (let (($x1265 (= $x6783 (or (exc_halt_t 2) (not (bvsle (_ bv0 6) (bvadd (_ bv63 6) (sc_t 2))))))))
 (let (($x7659 (forall ((w (_ BitVec 256)) )(let ((?x8141 (storage_t x_0 x_1 x_2 x_MLOAD_0 2 w)))
 (let ((?x4165 (storage_t x_0 x_1 x_2 x_MLOAD_0 3 w)))
 (= ?x4165 ?x8141))))
 ))
 (let (($x877 (forall ((n (_ BitVec 6)) )(let ((?x9727 (stack_t x_0 x_1 x_2 x_MLOAD_0 2 n)))
 (let ((?x9916 (stack_t x_0 x_1 x_2 x_MLOAD_0 3 n)))
 (let ((?x2714 (sc_t 2)))
 (let ((?x4475 (bvadd (_ bv63 6) ?x2714)))
 (let (($x8242 (bvsle ?x4475 n)))
 (or $x8242 (= ?x9916 ?x9727))))))))
 ))
 (let ((?x2714 (sc_t 2)))
 (let (($x10099 (= ?x6438 ?x2714)))
 (let ((?x11269 (used_gas_t x_0 x_1 x_2 x_MLOAD_0 3)))
 (let ((?x8732 (f_MLOAD x_0 x_1 x_2 x_MLOAD_0 (stack_t x_0 x_1 x_2 x_MLOAD_0 2 (bvadd (_ bv63 6) ?x2714)))))
 (let (($x2163 (exc_halt_t 2)))
 (let (($x4401 (= $x2163 (or (exc_halt_t 1) (not (bvsle (_ bv0 6) (bvadd (_ bv63 6) (sc_t 1))))))))
 (let (($x11257 (forall ((w (_ BitVec 256)) )(let ((?x8924 (storage_t x_0 x_1 x_2 x_MLOAD_0 1 w)))
 (let ((?x8141 (storage_t x_0 x_1 x_2 x_MLOAD_0 2 w)))
 (= ?x8141 ?x8924))))
 ))
 (let (($x10893 (forall ((n (_ BitVec 6)) )(let ((?x7154 (sc_t 1)))
 (let ((?x8231 (bvadd (_ bv63 6) ?x7154)))
 (let (($x8114 (bvsle ?x8231 n)))
 (let ((?x3217 (stack_t x_0 x_1 x_2 x_MLOAD_0 1 n)))
 (let ((?x9727 (stack_t x_0 x_1 x_2 x_MLOAD_0 2 n)))
 (or (= ?x9727 ?x3217) $x8114)))))))
 ))
 (let ((?x811 (used_gas_t x_0 x_1 x_2 x_MLOAD_0 2)))
 (let (($x1328 (forall ((w (_ BitVec 256)) )(let ((?x11469 (storage_t x_0 x_1 x_2 x_MLOAD_0 0 w)))
 (let ((?x8924 (storage_t x_0 x_1 x_2 x_MLOAD_0 1 w)))
 (= ?x8924 ?x11469))))
 ))
 (let (($x1285 (forall ((n (_ BitVec 6)) )(let ((?x3228 (stack_t x_0 x_1 x_2 x_MLOAD_0 0 n)))
 (let ((?x3217 (stack_t x_0 x_1 x_2 x_MLOAD_0 1 n)))
 (or (bvsle (bvadd (_ bv62 6) (sc_t 0)) n) (= ?x3217 ?x3228)))))
 ))
 (let (($x5308 (= (stack_t x_0 x_1 x_2 x_MLOAD_0 1 (bvadd (_ bv62 6) (sc_t 1))) (stack_t x_0 x_1 x_2 x_MLOAD_0 0 (bvadd (_ bv63 6) ?x63)))))
 (let (($x6695 (= (stack_t x_0 x_1 x_2 x_MLOAD_0 1 (bvadd (_ bv63 6) (sc_t 1))) (stack_t x_0 x_1 x_2 x_MLOAD_0 0 (bvadd (_ bv62 6) ?x63)))))
 (let (($x2400 (= $x772 (or (exc_halt_s 5) (not (bvsle (_ bv0 6) (bvadd (_ bv63 6) (sc_s 5))))))))
 (let (($x3210 (forall ((w (_ BitVec 256)) )(let ((?x3091 (storage_s x_0 x_1 x_2 x_MLOAD_0 5 w)))
 (let ((?x9468 (storage_s x_0 x_1 x_2 x_MLOAD_0 6 w)))
 (= ?x9468 ?x3091))))
 ))
 (let (($x1243 (forall ((n (_ BitVec 6)) )(let ((?x6810 (stack_s x_0 x_1 x_2 x_MLOAD_0 5 n)))
 (let ((?x995 (stack_s x_0 x_1 x_2 x_MLOAD_0 6 n)))
 (or (bvsle (bvadd (_ bv63 6) (sc_s 5)) n) (= ?x995 ?x6810)))))
 ))
 (let ((?x4319 (sc_s 5)))
 (let (($x8485 (= ?x926 ?x4319)))
 (let (($x5255 (= (used_gas_s x_0 x_1 x_2 x_MLOAD_0 6) (+ 3 (used_gas_s x_0 x_1 x_2 x_MLOAD_0 5)))))
 (let ((?x3344 (ite (= (stack_s x_0 x_1 x_2 x_MLOAD_0 5 (bvadd (_ bv63 6) ?x4319)) (_ bv0 256)) (_ bv1 256) (_ bv0 256))))
 (let (($x11317 (exc_halt_s 5)))
 (let (($x317 (= $x11317 (or (exc_halt_s 4) (not (bvsle (_ bv0 6) (bvadd (_ bv63 6) (sc_s 4))))))))
 (let (($x3540 (forall ((w (_ BitVec 256)) )(let ((?x11555 (storage_s x_0 x_1 x_2 x_MLOAD_0 4 w)))
 (let ((?x3091 (storage_s x_0 x_1 x_2 x_MLOAD_0 5 w)))
 (= ?x3091 ?x11555))))
 ))
 (let (($x10171 (forall ((n (_ BitVec 6)) )(let ((?x1429 (stack_s x_0 x_1 x_2 x_MLOAD_0 4 n)))
 (let ((?x6810 (stack_s x_0 x_1 x_2 x_MLOAD_0 5 n)))
 (or (= ?x6810 ?x1429) (bvsle (bvadd (_ bv63 6) (sc_s 4)) n)))))
 ))
 (let ((?x3705 (used_gas_s x_0 x_1 x_2 x_MLOAD_0 5)))
 (let ((?x4305 (sc_s 4)))
 (let ((?x10239 (bvadd (_ bv63 6) ?x4305)))
 (let ((?x9225 (stack_s x_0 x_1 x_2 x_MLOAD_0 4 ?x10239)))
 (let ((?x11455 (bvadd (_ bv63 6) ?x4319)))
 (let ((?x1695 (stack_s x_0 x_1 x_2 x_MLOAD_0 5 ?x11455)))
 (let (($x7172 (exc_halt_s 4)))
 (let (($x1854 (= $x7172 (or (exc_halt_s 3) (not (bvsle (_ bv0 6) (bvadd (_ bv62 6) (sc_s 3))))))))
 (let (($x7993 (forall ((w (_ BitVec 256)) )(let ((?x9516 (storage_s x_0 x_1 x_2 x_MLOAD_0 3 w)))
 (let ((?x11555 (storage_s x_0 x_1 x_2 x_MLOAD_0 4 w)))
 (= ?x11555 ?x9516))))
 ))
 (let (($x9378 (forall ((n (_ BitVec 6)) )(let ((?x588 (stack_s x_0 x_1 x_2 x_MLOAD_0 3 n)))
 (let ((?x1429 (stack_s x_0 x_1 x_2 x_MLOAD_0 4 n)))
 (or (bvsle (bvadd (_ bv62 6) (sc_s 3)) n) (= ?x1429 ?x588)))))
 ))
 (let ((?x2676 (used_gas_s x_0 x_1 x_2 x_MLOAD_0 4)))
 (let (($x3014 (= (stack_s x_0 x_1 x_2 x_MLOAD_0 3 (bvadd (_ bv63 6) (sc_s 3))) (stack_s x_0 x_1 x_2 x_MLOAD_0 3 (bvadd (_ bv62 6) (sc_s 3))))))
 (let (($x292 (exc_halt_s 3)))
 (let (($x3232 (= $x292 (or (exc_halt_s 2) (not (bvsle (_ bv0 6) (bvadd (_ bv63 6) (sc_s 2))))))))
 (let (($x8747 (forall ((w (_ BitVec 256)) )(let ((?x4125 (storage_s x_0 x_1 x_2 x_MLOAD_0 2 w)))
 (let ((?x9516 (storage_s x_0 x_1 x_2 x_MLOAD_0 3 w)))
 (= ?x9516 ?x4125))))
 ))
 (let (($x9106 (forall ((n (_ BitVec 6)) )(let ((?x218 (sc_s 2)))
 (let ((?x10607 (bvadd (_ bv63 6) ?x218)))
 (let (($x8922 (bvsle ?x10607 n)))
 (let ((?x6396 (stack_s x_0 x_1 x_2 x_MLOAD_0 2 n)))
 (let ((?x588 (stack_s x_0 x_1 x_2 x_MLOAD_0 3 n)))
 (or (= ?x588 ?x6396) $x8922)))))))
 ))
 (let ((?x945 (used_gas_s x_0 x_1 x_2 x_MLOAD_0 3)))
 (let (($x247 (exc_halt_s 2)))
 (let (($x9273 (= $x247 (or (exc_halt_s 1) (not (bvsle (_ bv0 6) (bvadd (_ bv62 6) (sc_s 1))))))))
 (let (($x9863 (forall ((w (_ BitVec 256)) )(let ((?x2800 (storage_s x_0 x_1 x_2 x_MLOAD_0 1 w)))
 (let ((?x4125 (storage_s x_0 x_1 x_2 x_MLOAD_0 2 w)))
 (= ?x4125 ?x2800))))
 ))
 (let (($x9153 (forall ((n (_ BitVec 6)) )(let ((?x11801 (stack_s x_0 x_1 x_2 x_MLOAD_0 1 n)))
 (let ((?x6396 (stack_s x_0 x_1 x_2 x_MLOAD_0 2 n)))
 (or (= ?x6396 ?x11801) (bvsle (bvadd (_ bv62 6) (sc_s 1)) n)))))
 ))
 (let ((?x154 (sc_s 1)))
 (let ((?x218 (sc_s 2)))
 (let (($x3301 (= ?x218 ?x154)))
 (let ((?x2701 (used_gas_s x_0 x_1 x_2 x_MLOAD_0 2)))
 (let ((?x4271 (bvadd (_ bv63 6) ?x154)))
 (let ((?x4399 (stack_s x_0 x_1 x_2 x_MLOAD_0 1 ?x4271)))
 (let (($x11206 (= (stack_s x_0 x_1 x_2 x_MLOAD_0 2 (bvadd (_ bv63 6) ?x218)) (stack_s x_0 x_1 x_2 x_MLOAD_0 1 (bvadd (_ bv62 6) ?x154)))))
 (let (($x6326 (forall ((w (_ BitVec 256)) )(let ((?x10204 (storage_s x_0 x_1 x_2 x_MLOAD_0 0 w)))
 (let ((?x2800 (storage_s x_0 x_1 x_2 x_MLOAD_0 1 w)))
 (= ?x2800 ?x10204))))
 ))
 (let (($x8121 (forall ((n (_ BitVec 6)) )(let ((?x661 (stack_s x_0 x_1 x_2 x_MLOAD_0 0 n)))
 (let ((?x11801 (stack_s x_0 x_1 x_2 x_MLOAD_0 1 n)))
 (or (bvsle (bvadd (_ bv63 6) (sc_s 0)) n) (= ?x11801 ?x661)))))
 ))
 (let ((?x7742 (f_MLOAD x_0 x_1 x_2 x_MLOAD_0 (stack_s x_0 x_1 x_2 x_MLOAD_0 0 (bvadd (_ bv63 6) ?x72)))))
 (let (($x11414 (forall ((w0 (_ BitVec 256)) )(let (($x6500 (= (stack_s x_0 x_1 x_2 x_MLOAD_0 0 (bvadd (_ bv63 6) (sc_s 0))) w0)))
 (let ((?x6431 (f_MLOAD x_0 x_1 x_2 x_MLOAD_0 w0)))
 (= ?x6431 (ite $x6500 x_MLOAD_0 (_ bv0 256))))))
 ))
 (let (($x5092 (forall ((w (_ BitVec 256)) )(let ((?x10204 (storage_s x_0 x_1 x_2 x_MLOAD_0 0 w)))
 (= ?x10204 (_ bv0 256))))
 ))
 (let (($x7642 (= ?x8881 0)))
 (let (($x7461 (not $x57)))
 (let (($x1698 (= (stack_s x_0 x_1 x_2 x_MLOAD_0 0 (_ bv2 6)) x_2)))
 (let (($x7849 (= (stack_s x_0 x_1 x_2 x_MLOAD_0 0 (_ bv1 6)) x_1)))
 (let (($x10087 (= (stack_s x_0 x_1 x_2 x_MLOAD_0 0 (_ bv0 6)) x_0)))
 (let (($x5176 (= ?x72 (_ bv3 6))))
 (and $x5176 $x10087 $x7849 $x1698 $x7461 $x7642 $x5092 $x11414 (= ?x4399 ?x7742) (= (used_gas_s x_0 x_1 x_2 x_MLOAD_0 1) (+ 3 ?x8881)) (= ?x154 ?x72) $x8121 $x6326 (= (exc_halt_s 1) (or $x57 (not (bvsle (_ bv0 6) (bvadd (_ bv63 6) ?x72))))) $x11206 (= (stack_s x_0 x_1 x_2 x_MLOAD_0 2 (bvadd (_ bv62 6) ?x218)) ?x4399) (= ?x2701 (+ 3 (used_gas_s x_0 x_1 x_2 x_MLOAD_0 1))) $x3301 $x9153 $x9863 $x9273 (= ?x945 (+ 2 ?x2701)) (= (sc_s 3) (bvadd (_ bv63 6) ?x218)) $x9106 $x8747 $x3232 (= ?x9225 (ite $x3014 (_ bv1 256) (_ bv0 256))) (= ?x2676 (+ 3 ?x945)) (= ?x4305 (bvadd (_ bv63 6) (sc_s 3))) $x9378 $x7993 $x1854 (= ?x1695 (ite (= ?x9225 (_ bv0 256)) (_ bv1 256) (_ bv0 256))) (= ?x3705 (+ 3 ?x2676)) (= ?x4319 ?x4305) $x10171 $x3540 $x317 (= (stack_s x_0 x_1 x_2 x_MLOAD_0 6 (bvadd (_ bv63 6) ?x926)) ?x3344) $x5255 $x8485 $x1243 $x3210 $x2400 $x6695 $x5308 (= (used_gas_t x_0 x_1 x_2 x_MLOAD_0 1) (+ 3 ?x2384)) (= (sc_t 1) ?x63) $x1285 $x1328 (= (exc_halt_t 1) (or $x56 (not (bvsle (_ bv0 6) (bvadd (_ bv62 6) ?x63))))) (= ?x811 (+ 2 (used_gas_t x_0 x_1 x_2 x_MLOAD_0 1))) (= ?x2714 (bvadd (_ bv63 6) (sc_t 1))) $x10893 $x11257 $x4401 (= ?x1294 ?x8732) (= ?x11269 (+ 3 ?x811)) $x10099 $x877 $x7659 $x1265 (= (stack_t x_0 x_1 x_2 x_MLOAD_0 4 (bvadd (_ bv63 6) ?x4818)) ?x5874) $x6418 (= ?x4818 ?x11118) $x4555 $x327 $x11453 $x73 $x7118 $x58 $x6677 $x1640 (not (and $x7899 $x9579 $x4404 $x6554))))))))))))))))))))))))))))))))))))))))))))))))))))))))))))))))))))))))))))))))))))))))))))))))))
 )
(check-sat)
(get-proof)
